
Log started (V11.0.0) Tue Apr 15 19:06:26 2008

Tried aggregator 1 time.
Reduced MIP has 120 rows, 2001 columns, and 4020 nonzeros.
Presolve time =    0.02 sec.
Clique table members: 100.
MIP emphasis: balance optimality and feasibility.
MIP search method: dynamic search.
Parallel mode: none, using 1 thread.
Root relaxation solution time =    0.05 sec.

        Nodes                                         Cuts/
   Node  Left     Objective  IInf  Best Integer     Best Node    ItCnt     Gap

*     0+    0                         5782.0000       70.0179      402   98.79%
*     0+    0                           80.0000       70.0179      402   12.48%
      0     0       71.0000    37       80.0000      Fract: 7      423   11.25%
*     0+    0                           79.0000       71.0000      423   10.13%
      0     0       71.0000    38       79.0000     Covers: 1      432   10.13%
      0     0       71.0000    41       79.0000     Covers: 2      443   10.13%
      0     2       71.0000    41       79.0000       71.0000      443   10.13%
*    40+   33                           78.0000       71.0000     1495    8.97%
    100    78       75.2708    36       78.0000       71.0000     3089    8.97%
    200   145       72.0000    30       78.0000       71.0000     5120    8.97%
    300   226       73.0000    30       78.0000       71.0000     7613    8.97%
    400   295       74.0000    29       78.0000       71.0000    10376    8.97%
*   473+  226                           77.0000       71.1744    12551    7.57%
*   473+  150                           75.0000       71.1744    12551    5.10%
    500   155       72.0000    49       75.0000       71.2458    12926    5.01%
    600   150       72.0000   104       75.0000       72.0000    15787    4.00%
    700   180    infeasible             75.0000       72.0000    19082    4.00%
    800   257       73.0000    97       75.0000       72.0000    23949    4.00%
    900   326       73.0000    99       75.0000       72.0000    30024    4.00%
   1000   373       72.3700   112       75.0000       72.0000    39778    4.00%
Elapsed time =  11.06 sec. (tree size =  1.55 MB, solutions = 6)
   1100   441       74.0000   101       75.0000       72.0000    46875    4.00%
*  1173+  254                           74.0000       72.0000    50260    2.70%
   1200   278       73.0000    82       74.0000       73.0000    51683    1.35%
   1300   258    infeasible             74.0000       73.0000    78326    1.35%
   1400   280    infeasible             74.0000       73.0000    92035    1.35%
   1500   284       73.0000   112       74.0000       73.0000   110720    1.35%
   1600   267    infeasible             74.0000       73.0000   133850    1.35%
   1700   262       73.0000   115       74.0000       73.0000   154133    1.35%
   1800   256       73.0000   116       74.0000       73.0000   176433    1.35%
   1900   280       73.0000    96       74.0000       73.0000   190581    1.35%
   2000   292       73.0000   108       74.0000       73.0000   205779    1.35%
Elapsed time =  42.24 sec. (tree size =  1.80 MB, solutions = 7)
   2100   288       73.0000   136       74.0000       73.0000   225307    1.35%
   2200   280    infeasible             74.0000       73.0000   242016    1.35%
   2300   240       73.0000   122       74.0000       73.0000   265235    1.35%
   2400   224    infeasible             74.0000       73.0000   283378    1.35%
   2500   212    infeasible             74.0000       73.0000   302981    1.35%
   2600   198       73.0000   134       74.0000       73.0000   326848    1.35%
   2700   226       73.0000   123       74.0000       73.0000   339933    1.35%
   2800   224    infeasible             74.0000       73.0000   358209    1.35%
   2900   222       73.0000   120       74.0000       73.0000   376728    1.35%
   3000   222       73.0000   107       74.0000       73.0000   393210    1.35%
Elapsed time =  83.61 sec. (tree size =  1.66 MB, solutions = 7)
   3100   213    infeasible             74.0000       73.0000   411210    1.35%
   3200   199       73.0000   102       74.0000       73.0000   430423    1.35%
   3300   183    infeasible             74.0000       73.0000   449100    1.35%
   3400   171       73.0000   137       74.0000       73.0000   469159    1.35%
   3500   149    infeasible             74.0000       73.0000   489062    1.35%
   3600   161       73.0000   116       74.0000       73.0000   505162    1.35%
   3700   167       73.0000   137       74.0000       73.0000   521408    1.35%
   3800   141    infeasible             74.0000       73.0000   541904    1.35%
   3900   119    infeasible             74.0000       73.0000   561655    1.35%
   4000    85       73.0000   121       74.0000       73.0000   583244    1.35%
Elapsed time = 127.55 sec. (tree size =  0.70 MB, solutions = 7)
   4100    33    infeasible             74.0000       73.0000   611263    1.35%
   4200    23       73.0000   102       74.0000       73.0000   633616    1.35%
   4300    69    infeasible             74.0000       73.0000   646840    1.35%
   4400    95       73.0000   115       74.0000       73.0000   662064    1.35%
   4500   123    infeasible             74.0000       73.0000   676619    1.35%
   4600   141       73.0000   105       74.0000       73.0000   693534    1.35%
   4700   169       73.0000   130       74.0000       73.0000   708688    1.35%
   4800   179       73.0000   108       74.0000       73.0000   725146    1.35%
   4900   167       73.0000   121       74.0000       73.0000   745333    1.35%
   5000   159       73.0000   118       74.0000       73.0000   763549    1.35%
Elapsed time = 169.22 sec. (tree size =  1.42 MB, solutions = 7)
   5100   123    infeasible             74.0000       73.0000   784773    1.35%
   5200    87       73.0000   125       74.0000       73.0000   807284    1.35%
   5300    40    infeasible             74.0000       73.0000   830701    1.35%

Cover cuts applied:  578
Mixed integer rounding cuts applied:  18
Gomory fractional cuts applied:  4

Solution pool: 7 solutions saved.

MIP - Integer optimal solution:  Objective = 7.4000000000e+001
Solution time =  189.30 sec.  Iterations = 852082  Nodes = 5369


Incumbent solution
Variable Name           Solution Value
Cmax                         74.000000
X_1_19                        1.000000
X_2_3                         1.000000
X_3_8                         1.000000
X_4_15                        1.000000
X_5_2                         1.000000
X_6_1                         1.000000
X_7_6                         1.000000
X_8_16                        1.000000
X_9_5                         1.000000
X_10_2                        1.000000
X_11_12                       1.000000
X_12_16                       1.000000
X_13_11                       1.000000
X_14_14                       1.000000
X_15_5                        1.000000
X_16_19                       1.000000
X_17_20                       1.000000
X_18_11                       1.000000
X_19_8                        1.000000
X_20_8                        1.000000
X_21_13                       1.000000
X_22_4                        1.000000
X_23_2                        1.000000
X_24_9                        1.000000
X_25_18                       1.000000
X_26_10                       1.000000
X_27_13                       1.000000
X_28_18                       1.000000
X_29_1                        1.000000
X_30_12                       1.000000
X_31_3                        1.000000
X_32_1                        1.000000
X_33_11                       1.000000
X_34_17                       1.000000
X_35_12                       1.000000
X_36_15                       1.000000
X_37_3                        1.000000
X_38_15                       1.000000
X_39_3                        1.000000
X_40_10                       1.000000
X_41_1                        1.000000
X_42_7                        1.000000
X_43_2                        1.000000
X_44_19                       1.000000
X_45_4                        1.000000
X_46_8                        1.000000
X_47_19                       1.000000
X_48_5                        1.000000
X_49_1                        1.000000
X_50_14                       1.000000
X_51_14                       1.000000
X_52_9                        1.000000
X_53_12                       1.000000
X_54_13                       1.000000
X_55_16                       1.000000
X_56_15                       1.000000
X_57_7                        1.000000
X_58_6                        1.000000
X_59_19                       1.000000
X_60_9                        1.000000
X_61_3                        1.000000
X_62_17                       1.000000
X_63_18                       1.000000
X_64_2                        1.000000
X_65_7                        1.000000
X_66_15                       1.000000
X_67_18                       1.000000
X_68_20                       1.000000
X_69_14                       1.000000
X_70_12                       1.000000
X_71_4                        1.000000
X_72_6                        1.000000
X_73_5                        1.000000
X_74_1                        1.000000
X_75_17                       1.000000
X_76_16                       1.000000
X_77_10                       1.000000
X_78_9                        1.000000
X_79_17                       1.000000
X_80_10                       1.000000
X_81_14                       1.000000
X_82_20                       1.000000
X_83_16                       1.000000
X_84_2                        1.000000
X_85_20                       1.000000
X_86_13                       1.000000
X_87_7                        1.000000
X_88_18                       1.000000
X_89_11                       1.000000
X_90_4                        1.000000
X_91_6                        1.000000
X_92_13                       1.000000
X_93_14                       1.000000
X_94_11                       1.000000
X_95_7                        1.000000
X_96_5                        1.000000
X_97_4                        1.000000
X_98_7                        1.000000
X_99_10                       1.000000
X_100_9                       1.000000
All other variables in the range 1-2001 are 0.
